c ind 1 21 22 23 24 25 26 27 28 29 30 31 32 33 34 35 36 0
p cnf 67 170
1 -3 0
2 -3 0
-1 -2 3 0
1 -5 0
2 -5 0
4 -5 0
-1 -2 -4 5 0
1 -7 0
2 -7 0
4 -7 0
6 -7 0
-1 -2 -4 -6 7 0
1 -9 0
2 -9 0
4 -9 0
6 -9 0
8 -9 0
-1 -2 -4 -6 -8 9 0
1 -10 0
2 -10 0
4 -10 0
6 -10 0
-8 -10 0
-1 -2 -4 -6 8 10 0
1 -12 0
2 -12 0
4 -12 0
6 -12 0
-8 -12 0
11 -12 0
-1 -2 -4 -6 8 -11 12 0
1 -13 0
2 -13 0
4 -13 0
6 -13 0
-8 -13 0
-11 -13 0
-1 -2 -4 -6 8 11 13 0
1 -15 0
2 -15 0
4 -15 0
6 -15 0
-8 -15 0
-11 -15 0
14 -15 0
-1 -2 -4 -6 8 11 -14 15 0
1 -16 0
2 -16 0
4 -16 0
6 -16 0
-8 -16 0
-11 -16 0
-14 -16 0
-1 -2 -4 -6 8 11 14 16 0
1 -18 0
2 -18 0
4 -18 0
6 -18 0
-8 -18 0
-11 -18 0
-14 -18 0
17 -18 0
-1 -2 -4 -6 8 11 14 -17 18 0
1 -19 0
2 -19 0
4 -19 0
6 -19 0
-8 -19 0
-11 -19 0
-14 -19 0
-17 -19 0
-1 -2 -4 -6 8 11 14 17 19 0
20 0
21 -37 0
-21 37 0
-1 -37 -38 0
1 37 -38 0
-1 37 38 0
1 -37 38 0
-38 0
26 -39 0
-26 39 0
-2 -39 -40 0
2 39 -40 0
-2 39 40 0
2 -39 40 0
-40 0
31 -41 0
-31 41 0
-4 -41 -42 0
4 41 -42 0
-4 41 42 0
4 -41 42 0
-42 0
36 -43 0
-36 43 0
-6 -43 -44 0
6 43 -44 0
-6 43 44 0
6 -43 44 0
-44 0
-31 45 0
31 -45 0
-31 -46 0
31 -46 0
31 47 0
-46 47 0
-31 46 -47 0
-8 -47 -48 0
8 47 -48 0
-8 47 48 0
8 -47 48 0
-48 0
-36 49 0
36 -49 0
-36 -50 0
36 -50 0
36 51 0
-50 51 0
-36 50 -51 0
-11 -51 -52 0
11 51 -52 0
-11 51 52 0
11 -51 52 0
-52 0
-21 53 0
21 -53 0
-21 -54 0
21 -54 0
21 55 0
-54 55 0
-21 54 -55 0
-14 -55 -56 0
14 55 -56 0
-14 55 56 0
14 -55 56 0
-56 0
-26 57 0
26 -57 0
-26 -58 0
26 -58 0
26 59 0
-58 59 0
-26 58 -59 0
-17 -59 -60 0
17 59 -60 0
-17 59 60 0
17 -59 60 0
-60 0
1 0
2 0
4 0
6 0
-8 0
-11 0
-14 0
-17 0
-61 -63 -65 0
61 63 -65 0
-61 63 65 0
61 -63 65 0
-62 -64 -66 0
62 64 -66 0
-62 64 66 0
62 -64 66 0
-65 -67 0
-66 -67 0
65 66 67 0
-20 67 0
20 -67 0
c __CPROVER_malloc_is_new_array#1 FALSE
c goto_symex::\guard#1 1
c goto_symex::\guard#2 2
c goto_symex::\guard#3 4
c goto_symex::\guard#4 6
c goto_symex::\guard#5 8
c goto_symex::\guard#6 11
c goto_symex::\guard#7 14
c goto_symex::\guard#8 17
c __CPROVER_thread_id!0#1 FALSE FALSE FALSE FALSE FALSE FALSE FALSE FALSE FALSE FALSE FALSE FALSE FALSE FALSE FALSE FALSE FALSE FALSE FALSE FALSE FALSE FALSE FALSE FALSE FALSE FALSE FALSE FALSE FALSE FALSE FALSE FALSE FALSE FALSE FALSE FALSE FALSE FALSE FALSE FALSE FALSE FALSE FALSE FALSE FALSE FALSE FALSE FALSE FALSE FALSE FALSE FALSE FALSE FALSE FALSE FALSE FALSE FALSE FALSE FALSE FALSE FALSE FALSE FALSE
c __CPROVER_rounding_mode!0#1 FALSE FALSE FALSE FALSE FALSE FALSE FALSE FALSE FALSE FALSE FALSE FALSE FALSE FALSE FALSE FALSE FALSE FALSE FALSE FALSE FALSE FALSE FALSE FALSE FALSE FALSE FALSE FALSE FALSE FALSE FALSE FALSE
c __CPROVER_pipe_count#1 FALSE FALSE FALSE FALSE FALSE FALSE FALSE FALSE FALSE FALSE FALSE FALSE FALSE FALSE FALSE FALSE FALSE FALSE FALSE FALSE FALSE FALSE FALSE FALSE FALSE FALSE FALSE FALSE FALSE FALSE FALSE FALSE
c __CPROVER_deallocated#1 FALSE FALSE FALSE FALSE FALSE FALSE FALSE FALSE FALSE FALSE FALSE FALSE FALSE FALSE FALSE FALSE FALSE FALSE FALSE FALSE FALSE FALSE FALSE FALSE FALSE FALSE FALSE FALSE FALSE FALSE FALSE FALSE FALSE FALSE FALSE FALSE FALSE FALSE FALSE FALSE FALSE FALSE FALSE FALSE FALSE FALSE FALSE FALSE FALSE FALSE FALSE FALSE FALSE FALSE FALSE FALSE FALSE FALSE FALSE FALSE FALSE FALSE FALSE FALSE
c check::1::x!0@1#1 21 22 23 24 25 26 27 28 29 30 31 32 33 34 35 36
c __CPROVER_dead_object#1 FALSE FALSE FALSE FALSE FALSE FALSE FALSE FALSE FALSE FALSE FALSE FALSE FALSE FALSE FALSE FALSE FALSE FALSE FALSE FALSE FALSE FALSE FALSE FALSE FALSE FALSE FALSE FALSE FALSE FALSE FALSE FALSE FALSE FALSE FALSE FALSE FALSE FALSE FALSE FALSE FALSE FALSE FALSE FALSE FALSE FALSE FALSE FALSE FALSE FALSE FALSE FALSE FALSE FALSE FALSE FALSE FALSE FALSE FALSE FALSE FALSE FALSE FALSE FALSE
c __CPROVER_next_thread_id#1 FALSE FALSE FALSE FALSE FALSE FALSE FALSE FALSE FALSE FALSE FALSE FALSE FALSE FALSE FALSE FALSE FALSE FALSE FALSE FALSE FALSE FALSE FALSE FALSE FALSE FALSE FALSE FALSE FALSE FALSE FALSE FALSE FALSE FALSE FALSE FALSE FALSE FALSE FALSE FALSE FALSE FALSE FALSE FALSE FALSE FALSE FALSE FALSE FALSE FALSE FALSE FALSE FALSE FALSE FALSE FALSE FALSE FALSE FALSE FALSE FALSE FALSE FALSE FALSE
c __CPROVER_malloc_object#1 FALSE FALSE FALSE FALSE FALSE FALSE FALSE FALSE FALSE FALSE FALSE FALSE FALSE FALSE FALSE FALSE FALSE FALSE FALSE FALSE FALSE FALSE FALSE FALSE FALSE FALSE FALSE FALSE FALSE FALSE FALSE FALSE FALSE FALSE FALSE FALSE FALSE FALSE FALSE FALSE FALSE FALSE FALSE FALSE FALSE FALSE FALSE FALSE FALSE FALSE FALSE FALSE FALSE FALSE FALSE FALSE FALSE FALSE FALSE FALSE FALSE FALSE FALSE FALSE
c __CPROVER_malloc_size#1 FALSE FALSE FALSE FALSE FALSE FALSE FALSE FALSE FALSE FALSE FALSE FALSE FALSE FALSE FALSE FALSE FALSE FALSE FALSE FALSE FALSE FALSE FALSE FALSE FALSE FALSE FALSE FALSE FALSE FALSE FALSE FALSE FALSE FALSE FALSE FALSE FALSE FALSE FALSE FALSE FALSE FALSE FALSE FALSE FALSE FALSE FALSE FALSE FALSE FALSE FALSE FALSE FALSE FALSE FALSE FALSE FALSE FALSE FALSE FALSE FALSE FALSE FALSE FALSE
c __CPROVER_memory_leak#1 FALSE FALSE FALSE FALSE FALSE FALSE FALSE FALSE FALSE FALSE FALSE FALSE FALSE FALSE FALSE FALSE FALSE FALSE FALSE FALSE FALSE FALSE FALSE FALSE FALSE FALSE FALSE FALSE FALSE FALSE FALSE FALSE FALSE FALSE FALSE FALSE FALSE FALSE FALSE FALSE FALSE FALSE FALSE FALSE FALSE FALSE FALSE FALSE FALSE FALSE FALSE FALSE FALSE FALSE FALSE FALSE FALSE FALSE FALSE FALSE FALSE FALSE FALSE FALSE
